25 100
  0     35.0     35.0       0.0      230.0      0.0       0.0       0.0  
  1     41.0     49.0      15.0      204.0     10.0       6.0      10.0  
  2     35.0     17.0      18.0      202.0     10.0      12.0       7.0  
  3     55.0     45.0      54.0      187.0     10.0      22.0      13.0  
  4     55.0     20.0      138.0     169.0     10.0      27.0      19.0  
  5     15.0     30.0      20.0      199.0     10.0      24.0      26.0  
  6     25.0     30.0      76.0      131.0     10.0       5.0       3.0  
  7     20.0     50.0      21.0      170.0     10.0       7.0       5.0  
  8     10.0     43.0      87.0      112.0     10.0      12.0       9.0  
  9     55.0     60.0      88.0      115.0     10.0       8.0      16.0  
 10     30.0     60.0      107.0     150.0     10.0       3.0      16.0  
 11     20.0     65.0      57.0      86.0      10.0      10.0      12.0  
 12     50.0     35.0      15.0      192.0     10.0      25.0      19.0  
 13     30.0     25.0      147.0     180.0     10.0      41.0      23.0  
 14     15.0     10.0      32.0      187.0     10.0      18.0      20.0  
 15     30.0      5.0      50.0      81.0      10.0       1.0       8.0  
 16     10.0     20.0      29.0      139.0     10.0      19.0      19.0  
 17      5.0     30.0      124.0     189.0     10.0       0.0       2.0  
 18     20.0     40.0      47.0      136.0     10.0       2.0      12.0  
 19     15.0     60.0      32.0      146.0     10.0      28.0      17.0  
 20     45.0     65.0      79.0      182.0     10.0      14.0       9.0  
 21     45.0     20.0      18.0      195.0     10.0      21.0      11.0  
 22     45.0     10.0      76.0      127.0     10.0      14.0      18.0  
 23     55.0      5.0      58.0      87.0      10.0      42.0      29.0  
 24     65.0     35.0      58.0      190.0     10.0       3.0       3.0  
 25     65.0     20.0      153.0     186.0     10.0       2.0       6.0  
